(set-option :produce-models true)
(declare-const hidden_states_size0 Int)
(declare-const hidden_states_size1 Int)
(declare-const hidden_states_size2 Int)
(declare-const hidden_states_stride0 Int)
(declare-const hidden_states_stride1 Int)
(declare-const hidden_states_stride2 Int)
(declare-const hidden_states_storage_offset Int)
(define-fun ge () Bool (>= hidden_states_size0 0))
(assert ge)
(define-fun ge_1 () Bool (>= hidden_states_size1 0))
(assert ge_1)
(define-fun ge_2 () Bool (>= hidden_states_size2 0))
(assert ge_2)
(define-fun eq () Bool (= hidden_states_size0 0))
(define-fun not_ () Bool (not eq))
(assert not_)
(define-fun sub () Int (- hidden_states_size0 1))
(define-fun mul () Int (* hidden_states_stride0 sub))
(define-fun add () Int (+ 1 mul))
(define-fun eq_1 () Bool (= hidden_states_size1 0))
(define-fun not__1 () Bool (not eq_1))
(assert not__1)
(define-fun sub_1 () Int (- hidden_states_size1 1))
(define-fun mul_1 () Int (* hidden_states_stride1 sub_1))
(define-fun add_1 () Int (+ add mul_1))
(define-fun eq_2 () Bool (= hidden_states_size2 0))
(define-fun not__2 () Bool (not eq_2))
(assert not__2)
(define-fun sub_2 () Int (- hidden_states_size2 1))
(define-fun mul_2 () Int (* hidden_states_stride2 sub_2))
(define-fun add_2 () Int (+ add_1 mul_2))
(define-fun mul_3 () Int (* 4 add_2))
(define-fun mul_4 () Int (* hidden_states_size0 hidden_states_size1))
(define-fun mul_5 () Int (* mul_4 hidden_states_size2))
(define-fun eq_3 () Bool (= mul_5 0))
(define-fun not__3 () Bool (not eq_3))
(assert not__3)
(define-fun eq_4 () Bool (= hidden_states_size2 1))
(define-fun not__4 () Bool (not eq_4))
(assert not__4)
(define-fun eq_5 () Bool (= hidden_states_stride2 1))
(assert eq_5)
(define-fun eq_6 () Bool (= hidden_states_size1 1))
(define-fun not__5 () Bool (not eq_6))
(assert not__5)
(define-fun eq_7 () Bool (= hidden_states_stride1 hidden_states_size2))
(assert eq_7)
(define-fun mul_6 () Int (* hidden_states_size2 hidden_states_size1))
(define-fun eq_8 () Bool (= hidden_states_size0 1))
(assert eq_8)
(define-fun eq_9 () Bool (= hidden_states_size0 hidden_states_size0))
(assert eq_9)
(define-fun eq_10 () Bool (= hidden_states_size1 hidden_states_size1))
(assert eq_10)
(define-fun eq_11 () Bool (= hidden_states_size2 hidden_states_size2))
(assert eq_11)
(define-fun eq_12 () Bool (= hidden_states_stride2 0))
(define-fun not__6 () Bool (not eq_12))
(assert not__6)
(define-fun eq_13 () Bool (= hidden_states_stride1 0))
(define-fun not__7 () Bool (not eq_13))
(assert not__7)
(define-fun lt () Bool (< hidden_states_stride2 hidden_states_stride1))
(assert lt)
(define-fun eq_14 () Bool (= hidden_states_stride0 0))
(define-fun not__8 () Bool (not eq_14))
(assert not__8)
(define-fun lt_1 () Bool (< hidden_states_stride1 hidden_states_stride0))
(assert lt_1)
(define-fun mul_7 () Int (* mul_6 hidden_states_size0))
(define-fun mul_8 () Int (* mul_6 sub))
(define-fun add_3 () Int (+ 1 mul_8))
(define-fun mul_9 () Int (* hidden_states_size2 sub_1))
(define-fun add_4 () Int (+ add_3 mul_9))
(define-fun add_5 () Int (+ add_4 sub_2))
(define-fun mul_10 () Int (* 4 add_5))
(define-fun ge_3 () Bool (>= hidden_states_storage_offset 0))
(assert ge_3)
(define-fun add_6 () Int (+ hidden_states_storage_offset add_2))
(define-fun mul_11 () Int (* 4 add_6))
(define-fun mul_12 () Int (* hidden_states_size1 hidden_states_size0))
(define-fun mul_13 () Int (* hidden_states_size1 sub))
(define-fun add_7 () Int (+ 1 mul_13))
(define-fun add_8 () Int (+ add_7 sub_1))
(define-fun mul_14 () Int (* 4 add_8))
(define-fun eq_15 () Bool (= mul_4 0))
(define-fun not__9 () Bool (not eq_15))
(assert not__9)
(define-fun sym_float () Real (to_real hidden_states_size2))
(define-fun lt_2 () Bool (< hidden_states_size1 0))
(define-fun not__10 () Bool (not lt_2))
(assert not__10)
(define-fun lt_3 () Bool (< hidden_states_size0 0))
(define-fun not__11 () Bool (not lt_3))
(assert not__11)
(define-fun lt_4 () Bool (< hidden_states_size1 1))
(define-fun not__12 () Bool (not lt_4))
(assert not__12)
(define-fun gt () Bool (> hidden_states_size1 1))
(assert gt)
(define-fun lt_5 () Bool (< hidden_states_size2 0))
(define-fun not__13 () Bool (not lt_5))
(assert not__13)
(define-fun eq_16 () Bool (= hidden_states_size0 -1))
(define-fun not__14 () Bool (not eq_16))
(assert not__14)
(define-fun eq_17 () Bool (= hidden_states_size1 -1))
(define-fun not__15 () Bool (not eq_17))
(assert not__15)
(define-fun eq_18 () Bool (= hidden_states_size2 -1))
(define-fun not__16 () Bool (not eq_18))
(assert not__16)
(define-fun lt_6 () Bool (< hidden_states_size1 2))
(define-fun not__17 () Bool (not lt_6))
(assert not__17)
(define-fun lt_7 () Bool (< hidden_states_size0 2))
(assert lt_7)
(define-fun lt_8 () Bool (< hidden_states_size2 2))
(define-fun not__18 () Bool (not lt_8))
(assert not__18)
(define-fun gt_1 () Bool (> hidden_states_size2 1))
(assert gt_1)
(define-fun eq_19 () Bool (= mul_6 0))
(define-fun not__19 () Bool (not eq_19))
(assert not__19)
(define-fun lt_9 () Bool (< hidden_states_size2 mul_6))
(assert lt_9)
(define-fun eq_20 () Bool (= mul_4 mul_4))
(assert eq_20)
(define-fun eq_21 () Bool (= hidden_states_size2 768))
(assert eq_21)
(define-fun mul_15 () Int (* mul_4 768))
(define-fun eq_22 () Bool (= mul_15 0))
(define-fun not__20 () Bool (not eq_22))
(assert not__20)
(define-fun mul_16 () Int (* 768 hidden_states_size1))
(define-fun mul_17 () Int (* mul_16 hidden_states_size0))
(define-fun mul_18 () Int (* mul_16 sub))
(define-fun add_9 () Int (+ 1 mul_18))
(define-fun mul_19 () Int (* 768 sub_1))
(define-fun add_10 () Int (+ add_9 mul_19))
(define-fun add_11 () Int (+ add_10 767))
(define-fun mul_20 () Int (* 4 add_11))
(define-fun eq_23 () Bool (= mul_16 0))
(define-fun not__21 () Bool (not eq_23))
(assert not__21)
(define-fun gt_2 () Bool (> mul_16 768))
(assert gt_2)
(define-fun eq_24 () Bool (= mul_11 0))
(define-fun not__22 () Bool (not eq_24))
(assert not__22)
(define-fun eq_25 () Bool (= mul_20 0))
(define-fun not__23 () Bool (not eq_25))
(assert not__23)
(define-fun output0_size0 () Int hidden_states_size0)
(define-fun output0_size1 () Int hidden_states_size1)
(define-fun output0_size2 () Int 768)
(define-fun output0_stride0 () Int mul_16)
(define-fun output0_stride1 () Int 768)
(define-fun output0_stride2 () Int 1)
(define-fun output0_storage_offset () Int 0)
(check-sat)
(get-model)
